analyze/results_flowersnark/final_miplib_symretope_if_extended_generating_set_cpx_v802__settings_final_nopeek_norelabel_extend_norestarts__2__neos-1109824.mps.gz.sol
solution status: optimal solution found
objective value:                                  378
C0014                                               1 	(obj:5)
C0283                                               1 	(obj:13)
C0342                                               1 	(obj:5)
C0362                                               1 	(obj:17)
C0384                                               1 	(obj:28)
C0428                                               1 	(obj:3)
C0450                                               1 	(obj:43)
C0463                                               1 	(obj:9)
C0498                                               1 	(obj:25)
C0521                                               1 	(obj:0)
C0547                                               1 	(obj:3)
C0558                                               1 	(obj:22)
C0571                                               1 	(obj:22)
C0630                                               1 	(obj:5)
C0675                                               1 	(obj:30)
C0772                                               1 	(obj:17)
C0780                                               1 	(obj:23)
C1006                                               1 	(obj:10)
C1104                                               1 	(obj:10)
C1156                                               1 	(obj:33)
C1236                                               1 	(obj:19)
C1355                                               1 	(obj:30)
C1456                                               1 	(obj:6)
