analyze/results_flowersnark/final_miplib_symretope_if_extended_generating_set_cpx_v802__settings_final_nopeek_norelabel_extend_norestarts__2__neos-1109824.mps.gz.out
FILENAME:   /home/mcs001/s132664/testsets/IP/miplib2010/neos-1109824.mps.gz
SETTINGS:   settings_final_nopeek_norelabel_extend_norestarts
TIMELIMIT:  7200
OUTPUTNAME: final_miplib_symretope_if_extended_generating_set_cpx_v802__settings_final_nopeek_norelabel_extend_norestarts__2__
BINNAME:    bin/sbcs.linux.x86_64.gnu.opt.cpx
BASENAME:   neos-1109824.mps.gz
SEED:       2
@01 /home/mcs001/s132664/testsets/IP/miplib2010/neos-1109824.mps.gz ===========
@02 neos-1109824.mps.gz
@03 1686656578
SCIP version 8.0.2 [precision: 8 byte] [memory: block] [mode: optimized] [LP solver: CPLEX 20.1.0.0] [GitHash: 5f0473c]
Copyright (C) 2002-2022 Konrad-Zuse-Zentrum fuer Informationstechnik Berlin (ZIB)

Symretope propagation methods - (c) Jasper van Doornmalen, Christopher Hojny.
[GitHash: 2fd0484]

reading parameter file <../settings/settings_final_nopeek_norelabel_extend_norestarts.set> ...

Changed settings:
limits/time = 7200
limits/restarts = 0
misc/usesymmetry = 1
randomization/randomseedshift = 2
constraints/orbisack/sepafreq = -1
constraints/symresack/sepafreq = -1
propagating/symmetry/addsymresacks = TRUE
propagating/symmetry/detectsubgroups = FALSE
propagating/symmetry/relabelsymretopes = 0
propagating/symmetry/extendgenerators = TRUE
propagating/symmetry/ofsymcomptiming = 0
constraints/symretope/sepafreq = -1
constraints/symretope/peek = FALSE


solving problem ...

original problem has 1520 variables (1520 bin, 0 int, 0 impl, 0 cont) and 28979 constraints
presolving:
(round 1, exhaustive) 0 del vars, 19000 del conss, 0 add conss, 0 chg bounds, 0 chg sides, 0 chg coeffs, 0 upgd conss, 0 impls, 783 clqs
(round 2, exhaustive) 0 del vars, 19000 del conss, 0 add conss, 0 chg bounds, 0 chg sides, 0 chg coeffs, 9903 upgd conss, 0 impls, 783 clqs
   (1.0s) probing: 1000/1520 (65.8%) - 0 fixings, 0 aggregations, 51828 implications, 0 bound changes
   (1.0s) probing: 1001/1520 (65.9%) - 0 fixings, 0 aggregations, 51883 implications, 0 bound changes
   (1.0s) probing aborted: 1000/1000 successive useless probings
   (1.0s) symmetry computation started: requiring (bin +, int +, cont +), (fixed: bin -, int -, cont -)
   (1.0s) symmetry computation finished: 4 generators found (max: 1500, log10 of symmetry group size: 1.7)
(round 3, exhaustive) 0 del vars, 19000 del conss, 9 add conss, 0 chg bounds, 0 chg sides, 0 chg coeffs, 9903 upgd conss, 0 impls, 52666 clqs
presolving (4 rounds: 4 fast, 4 medium, 4 exhaustive):
 0 deleted vars, 19000 deleted constraints, 9 added constraints, 0 tightened bounds, 0 added holes, 0 changed sides, 0 changed coefficients
 0 implications, 52666 cliques
presolved problem has 1520 variables (1520 bin, 0 int, 0 impl, 0 cont) and 9988 constraints
    783 constraints of type <setppc>
     76 constraints of type <linear>
      7 constraints of type <orbisack>
      2 constraints of type <symretope>
   9120 constraints of type <logicor>
transformed objective value is always integral (scale: 1)
Presolving Time: 1.05

 time | node  | left  |LP iter|LP it/n|mem/heur|mdpt |vars |cons |rows |cuts |sepa|confs|strbr|  dualbound   | primalbound  |  gap   | compl. 
  1.2s|     1 |     0 |   137 |     - |    75M |   0 |1520 |  10k|9990 |   0 |  0 |  21 |   0 | 2.780000e+02 |      --      |    Inf | unknown
  1.6s|     1 |     0 |   889 |     - |    77M |   0 |1520 |  10k|9996 |   6 |  1 |  21 |   0 | 2.780000e+02 |      --      |    Inf | unknown
  1.7s|     1 |     0 |   907 |     - |    78M |   0 |1520 |  10k|  10k|  11 |  2 |  21 |   0 | 2.810000e+02 |      --      |    Inf | unknown
  1.8s|     1 |     0 |   925 |     - |    79M |   0 |1520 |  10k|  10k|  31 |  3 |  27 |   0 | 2.810000e+02 |      --      |    Inf | unknown
  2.0s|     1 |     0 |   986 |     - |    80M |   0 |1520 |  10k|  10k|  52 |  4 |  27 |   0 | 3.173000e+02 |      --      |    Inf | unknown
  2.2s|     1 |     0 |  1020 |     - |    82M |   0 |1520 |  10k|  10k|  65 |  5 |  27 |   0 | 3.423333e+02 |      --      |    Inf | unknown
  2.3s|     1 |     0 |  1042 |     - |    84M |   0 |1520 |  10k|  10k|  80 |  6 |  27 |   0 | 3.440000e+02 |      --      |    Inf | unknown
  2.5s|     1 |     0 |  1066 |     - |    85M |   0 |1520 |  10k|  10k|  97 |  7 |  27 |   0 | 3.460000e+02 |      --      |    Inf | unknown
  2.7s|     1 |     0 |  1079 |     - |    88M |   0 |1520 |  10k|  10k| 107 |  8 |  27 |   0 | 3.460000e+02 |      --      |    Inf | unknown
  2.8s|     1 |     0 |  1103 |     - |    89M |   0 |1520 |  10k|  10k| 122 |  9 |  32 |   0 | 3.460000e+02 |      --      |    Inf | unknown
  3.0s|     1 |     0 |  1116 |     - |    91M |   0 |1520 |  10k|  10k| 131 | 10 |  32 |   0 | 3.460000e+02 |      --      |    Inf | unknown
  3.0s|     1 |     0 |  1136 |     - |    92M |   0 |1520 |  10k|  10k| 136 | 11 |  32 |   0 | 3.460000e+02 |      --      |    Inf | unknown
  3.0s|     1 |     0 |  1146 |     - |    93M |   0 |1520 |  10k|  10k| 144 | 12 |  32 |   0 | 3.460000e+02 |      --      |    Inf | unknown
  3.1s|     1 |     0 |  1157 |     - |    94M |   0 |1520 |  10k|  10k| 149 | 13 |  32 |   0 | 3.460000e+02 |      --      |    Inf | unknown
  3.1s|     1 |     0 |  1167 |     - |    95M |   0 |1520 |  10k|  10k| 154 | 14 |  32 |   0 | 3.460000e+02 |      --      |    Inf | unknown
 time | node  | left  |LP iter|LP it/n|mem/heur|mdpt |vars |cons |rows |cuts |sepa|confs|strbr|  dualbound   | primalbound  |  gap   | compl. 
  3.1s|     1 |     0 |  1172 |     - |    96M |   0 |1520 |  10k|  10k| 157 | 15 |  32 |   0 | 3.460000e+02 |      --      |    Inf | unknown
  3.2s|     1 |     0 |  1174 |     - |    97M |   0 |1520 |  10k|  10k| 160 | 16 |  32 |   0 | 3.460000e+02 |      --      |    Inf | unknown
  3.2s|     1 |     0 |  1190 |     - |    98M |   0 |1520 |  10k|  10k| 162 | 17 |  32 |   0 | 3.460000e+02 |      --      |    Inf | unknown
  3.2s|     1 |     0 |  1199 |     - |    99M |   0 |1520 |  10k|  10k| 165 | 18 |  32 |   0 | 3.460000e+02 |      --      |    Inf | unknown
  4.7s|     1 |     2 |  2890 |     - |   101M |   0 |1520 |  10k|  10k| 165 | 18 |  42 |  20 | 3.460000e+02 |      --      |    Inf | unknown
* 5.8s|     9 |     8 |  3078 | 235.1 |strongbr|   8 |1520 |  10k|  10k| 165 |  1 |  42 | 129 | 3.460000e+02 | 4.810000e+02 |  39.02%| unknown
* 5.9s|    10 |     9 |  3098 | 211.2 |strongbr|   9 |1520 |  10k|  10k| 165 |  1 |  42 | 137 | 3.460000e+02 | 4.800000e+02 |  38.73%| unknown
* 6.1s|    10 |     9 |  3113 | 212.9 |strongbr|   9 |1520 |  10k|  10k| 165 |  5 |  55 | 155 | 3.460000e+02 | 4.640000e+02 |  34.10%| unknown
* 6.1s|    11 |     8 |  3114 | 191.7 |strongbr|   9 |1520 |  10k|  10k| 165 |  2 |  55 | 160 | 3.460000e+02 | 4.560000e+02 |  31.79%| unknown
* 7.2s|    15 |     8 |  3319 | 151.6 |strongbr|   9 |1520 |  10k|  10k| 165 |  1 | 148 | 267 | 3.460000e+02 | 4.110000e+02 |  18.79%|   0.57%
* 8.4s|    22 |     9 |  3530 | 111.1 |strongbr|   9 |1520 |  10k|  10k| 165 |  1 | 269 | 392 | 3.460000e+02 | 4.040000e+02 |  16.76%|   7.22%
*10.2s|    39 |    14 |  3941 |  72.2 |strongbr|   9 |1520 |  10k|  10k| 165 |  1 | 407 | 570 | 3.460000e+02 | 4.000000e+02 |  15.61%|  14.64%
*10.2s|    39 |    14 |  3941 |  72.2 |strongbr|   9 |1520 |  10k|  10k| 165 |  1 | 409 | 572 | 3.460000e+02 | 3.990000e+02 |  15.32%|  14.64%
*11.0s|    45 |    11 |  4136 |  66.8 |strongbr|   9 |1520 |9709 |  10k| 165 |  1 | 464 | 633 | 3.460000e+02 | 3.860000e+02 |  11.56%|  20.51%
*13.5s|    67 |    13 |  4643 |  52.2 |strongbr|  12 |1520 |8095 |  10k| 187 |  2 | 698 | 858 | 3.460000e+02 | 3.830000e+02 |  10.69%|  24.25%
 time | node  | left  |LP iter|LP it/n|mem/heur|mdpt |vars |cons |rows |cuts |sepa|confs|strbr|  dualbound   | primalbound  |  gap   | compl. 
*16.4s|    89 |    15 |  5400 |  47.8 |strongbr|  17 |1520 |7450 |  10k| 247 |  5 | 887 |1062 | 3.460000e+02 | 3.780000e+02 |   9.25%|  31.10%
 17.1s|   100 |    16 |  5737 |  45.9 |   121M |  17 |1520 |6689 |  10k| 247 |  0 | 957 |1121 | 3.460000e+02 | 3.780000e+02 |   9.25%|  34.23%
 28.3s|   200 |    19 |  8866 |  38.5 |   150M |  17 |1520 |7163 |  10k| 471 |  3 |1757 |1715 | 3.612105e+02 | 3.780000e+02 |   4.65%|  49.55%
 35.0s|   300 |    21 | 11374 |  34.0 |   152M |  23 |1520 |7372 |  10k| 572 |  2 |2465 |2141 | 3.625385e+02 | 3.780000e+02 |   4.26%|  64.08%
 38.8s|   400 |    36 | 13226 |  30.1 |   153M |  30 |1520 |8077 |  10k| 589 |  4 |3360 |2383 | 3.625625e+02 | 3.780000e+02 |   4.26%|  64.09%
 41.6s|   500 |    34 | 15100 |  27.9 |   153M |  30 |1520 |8080 |  10k| 620 |  1 |3872 |2551 | 3.635000e+02 | 3.780000e+02 |   3.99%|  64.36%
 44.6s|   600 |    35 | 16972 |  26.3 |   154M |  37 |1520 |8214 |  10k| 625 |  3 |4377 |2760 | 3.645641e+02 | 3.780000e+02 |   3.69%|  64.67%
 47.0s|   700 |    37 | 18434 |  24.7 |   154M |  37 |1520 |8072 |   0 | 660 |  0 |4693 |2863 | 3.655000e+02 | 3.780000e+02 |   3.42%|  68.99%
 49.9s|   800 |    33 | 20024 |  23.6 |   155M |  37 |1520 |8006 |  10k| 698 |  0 |5098 |2998 | 3.660000e+02 | 3.780000e+02 |   3.28%|  70.35%
 52.0s|   900 |    35 | 21500 |  22.6 |   155M |  39 |1520 |7960 |  10k| 722 |  2 |5322 |3136 | 3.661250e+02 | 3.780000e+02 |   3.24%|  72.16%
 53.5s|  1000 |    31 | 22710 |  21.5 |   155M |  39 |1520 |7811 |  10k| 728 |  0 |5530 |3187 | 3.663750e+02 | 3.780000e+02 |   3.17%|  77.93%
 55.2s|  1100 |    26 | 23975 |  20.7 |   155M |  39 |1520 |7851 |   0 | 738 |  0 |5795 |3255 | 3.666875e+02 | 3.780000e+02 |   3.09%|  78.20%
 56.7s|  1200 |    13 | 25009 |  19.9 |   156M |  39 |1520 |7719 |  10k| 748 |  0 |6026 |3299 | 3.685000e+02 | 3.780000e+02 |   2.58%|  86.06%
 58.5s|  1300 |     6 | 26118 |  19.2 |   156M |  39 |1520 |7655 |   0 | 763 |  0 |6205 |3360 | 3.712857e+02 | 3.780000e+02 |   1.81%|  94.65%

SCIP Status        : problem is solved [optimal solution found]
Solving Time (sec) : 59.20
Solving Nodes      : 1370
Primal Bound       : +3.78000000000000e+02 (12 solutions)
Dual Bound         : +3.78000000000000e+02
Gap                : 0.00 %
SCIP Status        : problem is solved [optimal solution found]
Total Time         :      59.31
  solving          :      59.20
  presolving       :       1.05 (included in solving)
  reading          :       0.10
  copying          :       0.26 (13 #copies) (minimal 0.02, maximal 0.02, average 0.02)
Original Problem   :
  Problem name     : neos-1109824
  Variables        : 1520 (1520 binary, 0 integer, 0 implicit integer, 0 continuous)
  Constraints      : 28979 initial, 28979 maximal
  Objective        : minimize, 1512 non-zeros (abs.min = 3, abs.max = 83)
Presolved Problem  :
  Problem name     : t_neos-1109824
  Variables        : 1520 (1520 binary, 0 integer, 0 implicit integer, 0 continuous)
  Constraints      : 9988 initial, 10209 maximal
  Objective        : minimize, 1512 non-zeros (abs.min = 3, abs.max = 83)
  Nonzeros         : 40868 constraint, 56875 clique table
Presolvers         :   ExecTime  SetupTime  Calls  FixedVars   AggrVars   ChgTypes  ChgBounds   AddHoles    DelCons    AddCons   ChgSides   ChgCoefs
  boundshift       :       0.00       0.00      0          0          0          0          0          0          0          0          0          0
  convertinttobin  :       0.00       0.00      0          0          0          0          0          0          0          0          0          0
  domcol           :       0.01       0.00      2          0          0          0          0          0          0          0          0          0
  dualagg          :       0.00       0.00      0          0          0          0          0          0          0          0          0          0
  dualcomp         :       0.00       0.00      0          0          0          0          0          0          0          0          0          0
  dualinfer        :       0.00       0.00      0          0          0          0          0          0          0          0          0          0
  dualsparsify     :       0.01       0.00      1          0          0          0          0          0          0          0          0          0
  gateextraction   :       0.01       0.00      2          0          0          0          0          0          0          0          0          0
  implics          :       0.00       0.00      4          0          0          0          0          0          0          0          0          0
  inttobinary      :       0.00       0.00      0          0          0          0          0          0          0          0          0          0
  qpkktref         :       0.00       0.00      0          0          0          0          0          0          0          0          0          0
  redvub           :       0.00       0.00      0          0          0          0          0          0          0          0          0          0
  sparsify         :       0.04       0.00      1          0          0          0          0          0          0          0          0          0
  stuffing         :       0.00       0.00      0          0          0          0          0          0          0          0          0          0
  trivial          :       0.00       0.00      4          0          0          0          0          0          0          0          0          0
  tworowbnd        :       0.00       0.00      0          0          0          0          0          0          0          0          0          0
  dualfix          :       0.00       0.00      4          0          0          0          0          0          0          0          0          0
  genvbounds       :       0.00       0.00      0          0          0          0          0          0          0          0          0          0
  probing          :       0.80       0.00      1          0          0          0          0          0          0          0          0          0
  pseudoobj        :       0.00       0.00      0          0          0          0          0          0          0          0          0          0
  symmetry         :       0.04       0.00      1          0          0          0          0          0          0          9          0          0
  vbounds          :       0.01       0.00      2          0          0          0          0          0          0          0          0          0
  knapsack         :       0.00       0.00      0          0          0          0          0          0          0          0          0          0
  setppc           :       0.00       0.00      6          0          0          0          0          0          0          0          0          0
  linear           :       0.07       0.01      8          0          0          0          0          0      19000          0          0          0
  orbisack         :       0.00       0.00      1          0          0          0          0          0          0          0          0          0
  symretope        :       0.00       0.00      1          0          0          0          0          0          0          0          0          0
  logicor          :       0.04       0.00      6          0          0          0          0          0          0          0          0          0
  benders          :       0.00       0.00      0          0          0          0          0          0          0          0          0          0
  components       :       0.00       0.00      1          0          0          0          0          0          0          0          0          0
  root node        :          -          -      -        433          -          -        433          -          -          -          -          -
Constraints        :     Number  MaxNumber  #Separate #Propagate    #EnfoLP    #EnfoRelax  #EnfoPS    #Check   #ResProp    Cutoffs    DomReds       Cuts    Applied      Conss   Children
  benderslp        :          0          0          0          0       1621          0          0        121          0          0          0          0          0          0          0
  integral         :          0          0          0          0       1621          0          0        121          0          1       2766          0          0       4770       1382
  knapsack         :          0+        14          0      17005          0          0          0          0       1173         21       1607          0          0          0          0
  setppc           :        783+       866         18      24178          0          0          0        116     105781        132      21703          1          1          0          0
  linear           :         76+        79         18      24046          0          0          0         15      28623        275      18607          0          0          0          0
  orbisack         :          7          7          0        667          0          0          0         15       1399         35        517          0          0          0          0
  symretope        :          2          2          0       1740          0          0          0         15        483          4        306          0          0          0          0
  logicor          :       9120+      9328         18      13463          0          0          0         15       6835        295       3781          2          1          0          0
  benders          :          0          0          0          0          0          0          0         16          0          0          0          0          0          0          0
  countsols        :          0          0          0          0          0          0          0         16          0          0          0          0          0          0          0
  components       :          0          0          0          0          0          0          0          0          0          0          0          0          0          0          0
Constraint Timings :  TotalTime  SetupTime   Separate  Propagate     EnfoLP     EnfoPS     EnfoRelax   Check    ResProp    SB-Prop
  benderslp        :       0.00       0.00       0.00       0.00       0.00       0.00       0.00       0.00       0.00       0.00
  integral         :      29.01       0.00       0.00       0.00      29.01       0.00       0.00       0.00       0.00       0.00
  knapsack         :       0.07       0.00       0.00       0.03       0.00       0.00       0.00       0.00       0.01       0.03
  setppc           :       0.46       0.00       0.00       0.14       0.00       0.00       0.00       0.00       0.03       0.29
  linear           :       0.65       0.01       0.02       0.28       0.00       0.00       0.00       0.00       0.08       0.27
  orbisack         :       0.02       0.00       0.00       0.01       0.00       0.00       0.00       0.00       0.00       0.01
  symretope        :       0.02       0.00       0.00       0.01       0.00       0.00       0.00       0.00       0.00       0.01
  logicor          :       1.06       0.00       0.04       0.61       0.00       0.00       0.00       0.01       0.03       0.37
  benders          :       0.00       0.00       0.00       0.00       0.00       0.00       0.00       0.00       0.00       0.00
  countsols        :       0.00       0.00       0.00       0.00       0.00       0.00       0.00       0.00       0.00       0.00
  components       :       0.00       0.00       0.00       0.00       0.00       0.00       0.00       0.00       0.00       0.00
Propagators        : #Propagate   #ResProp    Cutoffs    DomReds
  dualfix          :          1          0          0          0
  genvbounds       :          0          0          0          0
  nlobbt           :          0          0          0          0
  obbt             :          0          0          0          0
  probing          :          0          0          0          0
  pseudoobj        :       9318          0          0          0
  redcost          :       5728          0          0      64995
  rootredcost      :         11          0          0        428
  symmetry         :          0          0          0          0
  vbounds          :       7659          0          0          0
Propagator Timings :  TotalTime  SetupTime   Presolve  Propagate    ResProp    SB-Prop
  dualfix          :       0.00       0.00       0.00       0.00       0.00       0.00
  genvbounds       :       0.01       0.00       0.00       0.00       0.00       0.00
  nlobbt           :       0.00       0.00       0.00       0.00       0.00       0.00
  obbt             :       0.00       0.00       0.00       0.00       0.00       0.00
  probing          :       0.80       0.00       0.80       0.00       0.00       0.00
  pseudoobj        :       0.03       0.00       0.00       0.03       0.00       0.00
  redcost          :       0.44       0.00       0.00       0.44       0.00       0.00
  rootredcost      :       0.01       0.00       0.00       0.01       0.00       0.00
  symmetry         :       0.05       0.00       0.04       0.00       0.00       0.00
  vbounds          :       0.03       0.00       0.01       0.02       0.00       0.00
Orbital fixing     :
  vars fixed to 0  :          0
  vars fixed to 1  :          0
Conflict Analysis  :       Time      Calls    Success    DomReds  Conflicts   Literals    Reconvs ReconvLits   Dualrays   Nonzeros   LP Iters   (pool size: [10000,10000])
  propagation      :       0.11        659        644          -       2747      142.9         97       47.2          -          -          -
  infeasible LP    :       0.05         35         35          -        155       97.6          4       10.2         29      107.9          0
  bound exceed. LP :       6.92       1320       1137          -       6974      110.7         59       40.7          0        0.0      13472
  strong branching :       0.00          0          0          -          0        0.0          0        0.0          -          -          0
  pseudo solution  :       0.00          0          0          -          0        0.0          0        0.0          -          -          -
  applied globally :       0.99          -          -          0       6152       57.6          -          -         29          -          -
  applied locally  :          -          -          -          0         57      304.2          -          -          0          -          -
Separators         :   ExecTime  SetupTime      Calls  RootCalls    Cutoffs    DomReds  FoundCuts ViaPoolAdd  DirectAdd    Applied ViaPoolApp  DirectApp      Conss
  cut pool         :       0.32          -        459         35          -          -       3043       2737          -          -          -          -          -    (maximal pool size:       1849)
  aggregation      :       0.28       0.00        160         18          0          0          0          0          0          0          0          0          0
  > cmir           :          -          -          -          -          -          -          -          0          0          0          0          0          -
  > flowcover      :          -          -          -          -          -          -          -          0          0          0          0          0          -
  > knapsackcover  :          -          -          -          -          -          -          -          0          0          0          0          0          -
  cgmip            :       0.00       0.00          0          0          0          0          0          0          0          0          0          0          0
  clique           :       0.05       0.00         18         18          0          0         58        112          0         83         83          0          0
  closecuts        :       0.00       0.00          0          0          0          0          0          0          0          0          0          0          0
  convexproj       :       0.00       0.00          0          0          0          0          0          0          0          0          0          0          0
  disjunctive      :       0.00       0.00          0          0          0          0          0          0          0          0          0          0          0
  eccuts           :       0.00       0.00          0          0          0          0          0          0          0          0          0          0          0
  gauge            :       0.00       0.00          0          0          0          0          0          0          0          0          0          0          0
  gomory           :       6.60       0.00        106         10          0          0       2732       1999         50        342        340          2          0
  > gomorymi       :          -          -          -          -          -          -          -        714         25         66         64          2          -
  > strongcg       :          -          -          -          -          -          -          -       1285         25        276        276          0          -
  impliedbounds    :       0.30       0.00        160         18          0          0          0          0          0          0          0          0          0
  interminor       :       0.00       0.00          0          0          0          0          0          0          0          0          0          0          0
  intobj           :       0.00       0.00          0          0          0          0          0          0          0          0          0          0          0
  mcf              :       0.00       0.00          1          1          0          0          0          0          0          0          0          0          0
  minor            :       0.00       0.00          0          0          0          0          0          0          0          0          0          0          0
  mixing           :       0.00       0.00          0          0          0          0          0          0          0          0          0          0          0
  oddcycle         :       0.00       0.00          0          0          0          0          0          0          0          0          0          0          0
  rapidlearning    :       0.03       0.00          0          0          0          0          0          0          0          0          0          0          0
  rlt              :       0.00       0.00         10         10          0          0          0          0          0          0          0          0          0
  zerohalf         :       0.20       0.00        114         18          0          0        331        626         28        349        336         13          0
Cutselectors       :   ExecTime  SetupTime      Calls  RootCalls   Selected     Forced   Filtered  RootSelec   RootForc   RootFilt 
  hybrid           :       0.00       0.00        197         18        776          0       2042        165          0        228
Pricers            :   ExecTime  SetupTime      Calls       Vars
  problem variables:       0.00          -          0          0
Branching Rules    :   ExecTime  SetupTime   BranchLP  BranchExt   BranchPS    Cutoffs    DomReds       Cuts      Conss   Children
  allfullstrong    :       0.00       0.00          0          0          0          0          0          0          0          0
  cloud            :       0.00       0.00          0          0          0          0          0          0          0          0
  distribution     :       0.00       0.00          0          0          0          0          0          0          0          0
  fullstrong       :       0.00       0.00          0          0          0          0          0          0          0          0
  inference        :       0.00       0.00          0          0          0          0          0          0          0          0
  leastinf         :       0.00       0.00          0          0          0          0          0          0          0          0
  lookahead        :       0.00       0.00          0          0          0          0          0          0          0          0
  mostinf          :       0.00       0.00          0          0          0          0          0          0          0          0
  multaggr         :       0.00       0.00          0          0          0          0          0          0          0          0
  nodereopt        :       0.00       0.00          0          0          0          0          0          0          0          0
  pscost           :       0.00       0.00          0          0          0          0          0          0          0          0
  random           :       0.00       0.00          0          0          0          0          0          0          0          0
  relpscost        :      29.01       0.00       1621          0          0          1       2766          0       5282       1382
  vanillafullstrong:       0.00       0.00          0          0          0          0          0          0          0          0
Primal Heuristics  :   ExecTime  SetupTime      Calls      Found       Best
  LP solutions     :       0.00          -          -          0          0
  relax solutions  :       0.00          -          -          0          0
  pseudo solutions :       0.00          -          -          0          0
  strong branching :       0.03          -          -         11         11
  actconsdiving    :       0.00       0.00          0          0          0
  adaptivediving   :       0.00       0.00          0          0          0
  alns             :       0.35       0.00          4          0          0
  bound            :       0.00       0.00          0          0          0
  clique           :       0.04       0.00          1          0          0
  coefdiving       :       0.00       0.00          0          0          0
  completesol      :       0.00       0.00          0          0          0
  conflictdiving   :       0.04       0.00          1          0          0
  crossover        :       0.10       0.00          2          0          0
  dins             :       0.00       0.00          0          0          0
  distributiondivin:       0.04       0.00          0          0          0
  dps              :       0.00       0.00          0          0          0
  dualval          :       0.00       0.00          0          0          0
  farkasdiving     :       1.04       0.00          1          0          0
  feaspump         :       0.18       0.00          1          0          0
  fixandinfer      :       0.00       0.00          0          0          0
  fracdiving       :       0.00       0.00          0          0          0
  gins             :       0.00       0.00          0          0          0
  guideddiving     :       0.00       0.00          0          0          0
  indicator        :       0.00       0.00          0          0          0
  intdiving        :       0.00       0.00          0          0          0
  intshifting      :       0.00       0.00          0          0          0
  linesearchdiving :       0.00       0.00          0          0          0
  localbranching   :       0.00       0.00          0          0          0
  locks            :       0.01       0.00          1          0          0
  lpface           :       0.10       0.00          1          0          0
  mpec             :       0.00       0.00          0          0          0
  multistart       :       0.00       0.00          0          0          0
  mutation         :       0.00       0.00          0          0          0
  nlpdiving        :       0.00       0.00          0          0          0
  objpscostdiving  :       0.00       0.00          0          0          0
  octane           :       0.00       0.00          0          0          0
  ofins            :       0.00       0.00          0          0          0
  oneopt           :       0.01       0.00          9          0          0
  padm             :       0.00       0.00          0          0          0
  proximity        :       0.00       0.00          0          0          0
  pscostdiving     :       0.00       0.00          0          0          0
  randrounding     :       0.09       0.00        113          0          0
  rens             :       0.04       0.00          1          0          0
  reoptsols        :       0.00       0.00          0          0          0
  repair           :       0.00       0.00          0          0          0
  rins             :       0.27       0.00          6          0          0
  rootsoldiving    :       0.00       0.00          0          0          0
  rounding         :       0.27       0.00        621          0          0
  shiftandpropagate:       0.01       0.00          1          0          0
  shifting         :       0.23       0.00        278          1          0
  simplerounding   :       0.00       0.00          0          0          0
  subnlp           :       0.00       0.00          0          0          0
  trivial          :       0.00       0.00          2          0          0
  trivialnegation  :       0.00       0.00          0          0          0
  trustregion      :       0.00       0.00          0          0          0
  trysol           :       0.00       0.00          0          0          0
  twoopt           :       0.00       0.00          0          0          0
  undercover       :       0.00       0.00          0          0          0
  vbounds          :       0.03       0.00          1          0          0
  veclendiving     :       0.00       0.00          0          0          0
  zeroobj          :       0.00       0.00          0          0          0
  zirounding       :       0.04       0.00        691          0          0
  other solutions  :          -          -          -          0          -
LP                 :       Time      Calls Iterations  Iter/call   Iter/sec  Time-0-It Calls-0-It    ItLimit
  primal LP        :       0.65         89          0       0.00       0.00       0.65         89
  dual LP          :      10.74       4416      24058       9.34    2240.41       1.31       1841
  lex dual LP      :       0.00          0          0       0.00          -
  barrier LP       :       0.00          0          0       0.00          -       0.00          0
  resolve instable :       0.00          0          0       0.00          -
  diving/probing LP:       2.75        320       2424       7.58     880.06
  strong branching :      14.70       3372      49980      14.82    3400.24          -          -        487
    (at root node) :          -         20       1211      60.55          -
  conflict analysis:       4.53       1444      13472       9.33    2971.33
B&B Tree           :
  number of runs   :          1
  nodes            :       1370 (691 internal, 679 leaves)
  feasible leaves  :          0
  infeas. leaves   :        149
  objective leaves :        530
  nodes (total)    :       1370 (691 internal, 679 leaves)
  nodes left       :          0
  max depth        :         39
  max depth (total):         39
  backtracks       :        185 (13.5%)
  early backtracks :          0 (0.0%)
  nodes exc. ref.  :          0 (0.0%)
  delayed cutoffs  :          7
  repropagations   :        519 (822 domain reductions, 6 cutoffs)
  avg switch length:       3.88
  switching time   :       1.29
Root Node          :
  First LP value   : +2.78000000000000e+02
  First LP Iters   :        135 (4976.78 Iter/sec)
  First LP Time    :       0.03
  Final Dual Bound : +3.46000000000000e+02
  Final Root Iters :       1197
  Root LP Estimate : +3.57736446070028e+02
Solution           :
  Solutions found  :         12 (11 improvements)
  First Solution   : +4.81000000000000e+02   (in run 1, after 9 nodes, 5.82 seconds, depth 10, found by <relaxation>)
  Gap First Sol.   :      39.02 %
  Gap Last Sol.    :       9.25 %
  Primal Bound     : +3.78000000000000e+02   (in run 1, after 89 nodes, 16.44 seconds, depth 14, found by <relaxation>)
  Dual Bound       : +3.78000000000000e+02
  Gap              :       0.00 %
Integrals          :      Total       Avg%
  primal-dual      :     904.66      15.28
  primal-ref       :          -          - (not evaluated)
  dual-ref         :          -          - (not evaluated)
written solution information to file <results/final_miplib_symretope_if_extended_generating_set_cpx_v802__settings_final_nopeek_norelabel_extend_norestarts__2__neos-1109824.mps.gz.sol>
@04 1686656638
